Si15 P1
1.0
   0.0000000000000000    5.4299999999999997    5.4299999999999997
   5.4299999999999997    0.0000000000000000    5.4299999999999997
   5.4299999999999997    5.4299999999999997    0.0000000000000000
P Si
1 15
direct
   0.0000000000000000    0.0000000000000000    0.0000000000000000 P
   0.0000000000000000    0.0000000000000000    0.5000000000000000 Si
   0.0000000000000000    0.5000000000000000    0.0000000000000000 Si
   0.0000000000000000    0.5000000000000000    0.5000000000000000 Si
   0.5000000000000000    0.0000000000000000    0.0000000000000000 Si
   0.4999999999999999    0.0000000000000000    0.5000000000000000 Si
   0.4999999999999999    0.5000000000000000    0.0000000000000000 Si
   0.4999999999999999    0.5000000000000000    0.5000000000000000 Si
   0.1250000000000000    0.1250000000000000    0.1250000000000000 Si
   0.1250000000000000    0.1250000000000000    0.6250000000000000 Si
   0.1250000000000000    0.6250000000000000    0.1250000000000000 Si
   0.1250000000000000    0.6250000000000000    0.6250000000000000 Si
   0.6250000000000000    0.1250000000000000    0.1250000000000000 Si
   0.6250000000000000    0.1250000000000000    0.6250000000000000 Si
   0.6250000000000000    0.6250000000000000    0.1250000000000000 Si
   0.6250000000000000    0.6250000000000000    0.6250000000000000 Si
