Si Bulk unit cell
1.0
 0.0 2.715 2.715
 2.715 0.0 2.715
 2.715 2.715 0.0
Si
2
Direct
0.0 0.0 0.0
0.25 0.25 0.25
