Si128
1.0
   0.0000000000000000   10.8599999999999994   10.8599999999999994
  10.8599999999999994    0.0000000000000000   10.8599999999999994
  10.8599999999999994   10.8599999999999994    0.0000000000000000
Si
128
direct
   0.0000000000000000    0.0000000000000000    0.0000000000000000 Si
   0.0000000000000000    0.0000000000000000    0.2500000000000000 Si
   0.0000000000000000    0.0000000000000000    0.5000000000000000 Si
   0.0000000000000000    0.0000000000000000    0.7500000000000000 Si
   0.0000000000000000    0.2500000000000000    0.0000000000000000 Si
   0.0000000000000000    0.2500000000000000    0.2500000000000000 Si
   0.0000000000000000    0.2500000000000000    0.5000000000000000 Si
   0.0000000000000000    0.2500000000000000    0.7500000000000000 Si
   0.0000000000000000    0.5000000000000000    0.0000000000000000 Si
   0.0000000000000000    0.5000000000000000    0.2500000000000000 Si
   0.0000000000000000    0.5000000000000000    0.5000000000000000 Si
   0.0000000000000000    0.5000000000000000    0.7500000000000000 Si
   0.0000000000000000    0.7500000000000000    0.0000000000000000 Si
   0.0000000000000000    0.7500000000000000    0.2500000000000000 Si
   0.0000000000000000    0.7500000000000000    0.5000000000000000 Si
   0.0000000000000000    0.7500000000000000    0.7500000000000000 Si
   0.2500000000000000    0.0000000000000000    0.0000000000000000 Si
   0.2500000000000000    0.0000000000000000    0.2500000000000000 Si
   0.2500000000000000    0.0000000000000000    0.5000000000000000 Si
   0.2500000000000000    0.0000000000000000    0.7500000000000000 Si
   0.2500000000000000    0.2500000000000000    0.0000000000000000 Si
   0.2500000000000000    0.2500000000000000    0.2500000000000000 Si
   0.2500000000000000    0.2500000000000000    0.5000000000000000 Si
   0.2500000000000000    0.2500000000000000    0.7500000000000000 Si
   0.2500000000000000    0.5000000000000000    0.0000000000000000 Si
   0.2500000000000000    0.5000000000000000    0.2500000000000000 Si
   0.2499999999999999    0.5000000000000000    0.5000000000000000 Si
   0.2499999999999999    0.5000000000000000    0.7500000000000000 Si
   0.2500000000000000    0.7500000000000000    0.0000000000000000 Si
   0.2500000000000000    0.7500000000000000    0.2500000000000000 Si
   0.2500000000000000    0.7500000000000000    0.5000000000000000 Si
   0.2500000000000000    0.7500000000000000    0.7500000000000000 Si
   0.5000000000000000    0.0000000000000000    0.0000000000000000 Si
   0.4999999999999999    0.0000000000000000    0.2500000000000000 Si
   0.4999999999999999    0.0000000000000000    0.5000000000000000 Si
   0.4999999999999999    0.0000000000000000    0.7500000000000000 Si
   0.4999999999999999    0.2500000000000000    0.0000000000000000 Si
   0.4999999999999999    0.2500000000000000    0.2500000000000000 Si
   0.4999999999999999    0.2500000000000000    0.5000000000000000 Si
   0.4999999999999999    0.2500000000000000    0.7500000000000000 Si
   0.4999999999999999    0.5000000000000000    0.0000000000000000 Si
   0.4999999999999999    0.5000000000000000    0.2500000000000000 Si
   0.4999999999999999    0.5000000000000000    0.5000000000000000 Si
   0.4999999999999999    0.5000000000000000    0.7500000000000000 Si
   0.5000000000000000    0.7500000000000000    0.0000000000000000 Si
   0.4999999999999999    0.7500000000000000    0.2500000000000000 Si
   0.4999999999999999    0.7500000000000000    0.5000000000000000 Si
   0.4999999999999999    0.7500000000000000    0.7500000000000000 Si
   0.7500000000000000    0.0000000000000000    0.0000000000000000 Si
   0.7500000000000000    0.0000000000000000    0.2500000000000000 Si
   0.7500000000000000    0.0000000000000000    0.5000000000000000 Si
   0.7499999999999999    0.0000000000000000    0.7500000000000000 Si
   0.7500000000000000    0.2500000000000000    0.0000000000000000 Si
   0.7500000000000000    0.2500000000000000    0.2500000000000000 Si
   0.7500000000000000    0.2500000000000000    0.5000000000000000 Si
   0.7500000000000000    0.2500000000000000    0.7500000000000000 Si
   0.7500000000000000    0.5000000000000000    0.0000000000000000 Si
   0.7500000000000000    0.5000000000000000    0.2500000000000000 Si
   0.7500000000000000    0.5000000000000000    0.5000000000000000 Si
   0.7500000000000000    0.5000000000000000    0.7500000000000000 Si
   0.7500000000000000    0.7500000000000000    0.0000000000000000 Si
   0.7500000000000000    0.7500000000000000    0.2500000000000001 Si
   0.7499999999999999    0.7500000000000000    0.5000000000000000 Si
   0.7499999999999999    0.7500000000000000    0.7500000000000000 Si
   0.0625000000000000    0.0625000000000000    0.0625000000000000 Si
   0.0625000000000000    0.0625000000000000    0.3125000000000000 Si
   0.0625000000000000    0.0625000000000000    0.5625000000000000 Si
   0.0625000000000000    0.0625000000000000    0.8125000000000000 Si
   0.0625000000000000    0.3125000000000000    0.0625000000000000 Si
   0.0625000000000000    0.3125000000000000    0.3125000000000000 Si
   0.0625000000000000    0.3125000000000000    0.5625000000000000 Si
   0.0625000000000000    0.3125000000000000    0.8125000000000000 Si
   0.0625000000000000    0.5625000000000000    0.0625000000000000 Si
   0.0625000000000000    0.5625000000000000    0.3125000000000000 Si
   0.0625000000000000    0.5625000000000000    0.5625000000000000 Si
   0.0625000000000000    0.5625000000000000    0.8125000000000000 Si
   0.0625000000000000    0.8125000000000000    0.0625000000000000 Si
   0.0625000000000000    0.8125000000000000    0.3125000000000000 Si
   0.0625000000000000    0.8125000000000000    0.5625000000000000 Si
   0.0625000000000000    0.8125000000000000    0.8125000000000000 Si
   0.3125000000000000    0.0625000000000000    0.0625000000000000 Si
   0.3125000000000000    0.0625000000000000    0.3125000000000000 Si
   0.3125000000000000    0.0625000000000000    0.5625000000000000 Si
   0.3124999999999999    0.0625000000000000    0.8125000000000000 Si
   0.3125000000000000    0.3125000000000000    0.0625000000000000 Si
   0.3125000000000000    0.3125000000000000    0.3125000000000000 Si
   0.3124999999999999    0.3125000000000000    0.5625000000000000 Si
   0.3124999999999999    0.3125000000000000    0.8125000000000000 Si
   0.3125000000000000    0.5625000000000000    0.0625000000000000 Si
   0.3125000000000000    0.5625000000000000    0.3125000000000000 Si
   0.3124999999999999    0.5625000000000000    0.5625000000000000 Si
   0.3124999999999999    0.5625000000000000    0.8125000000000000 Si
   0.3125000000000000    0.8125000000000000    0.0625000000000000 Si
   0.3125000000000000    0.8125000000000000    0.3125000000000000 Si
   0.3125000000000000    0.8125000000000000    0.5625000000000000 Si
   0.3125000000000000    0.8125000000000000    0.8125000000000000 Si
   0.5625000000000000    0.0625000000000000    0.0625000000000000 Si
   0.5625000000000000    0.0625000000000000    0.3125000000000000 Si
   0.5625000000000000    0.0625000000000000    0.5625000000000000 Si
   0.5625000000000000    0.0625000000000000    0.8125000000000000 Si
   0.5625000000000000    0.3125000000000000    0.0625000000000000 Si
   0.5625000000000000    0.3125000000000000    0.3125000000000000 Si
   0.5625000000000000    0.3125000000000000    0.5625000000000000 Si
   0.5625000000000000    0.3125000000000000    0.8125000000000000 Si
   0.5625000000000000    0.5625000000000000    0.0625000000000000 Si
   0.5625000000000000    0.5625000000000000    0.3125000000000000 Si
   0.5625000000000000    0.5625000000000000    0.5625000000000000 Si
   0.5625000000000000    0.5625000000000000    0.8125000000000000 Si
   0.5625000000000000    0.8125000000000000    0.0625000000000000 Si
   0.5624999999999999    0.8125000000000000    0.3125000000000001 Si
   0.5624999999999999    0.8125000000000000    0.5625000000000000 Si
   0.5624999999999999    0.8125000000000000    0.8125000000000000 Si
   0.8125000000000000    0.0625000000000000    0.0625000000000000 Si
   0.8125000000000000    0.0625000000000000    0.3125000000000000 Si
   0.8124999999999999    0.0625000000000000    0.5625000000000000 Si
   0.8125000000000000    0.0624999999999999    0.8125000000000000 Si
   0.8125000000000000    0.3125000000000000    0.0625000000000000 Si
   0.8125000000000000    0.3125000000000000    0.3125000000000000 Si
   0.8125000000000000    0.3125000000000000    0.5625000000000000 Si
   0.8125000000000000    0.3124999999999999    0.8125000000000000 Si
   0.8125000000000000    0.5625000000000000    0.0625000000000000 Si
   0.8124999999999999    0.5625000000000000    0.3125000000000001 Si
   0.8124999999999999    0.5625000000000000    0.5625000000000000 Si
   0.8125000000000000    0.5624999999999999    0.8125000000000000 Si
   0.8125000000000000    0.8125000000000001    0.0625000000000000 Si
   0.8125000000000000    0.8125000000000001    0.3124999999999999 Si
   0.8125000000000000    0.8125000000000001    0.5625000000000000 Si
   0.8125000000000001    0.8125000000000000    0.8125000000000000 Si
