&CONTROL
  calculation = 'scf'
  restart_mode = 'from_scratch'
  outdir = './out/'
  pseudo_dir = './pseudo/'
  prefix = 'silicon'
/
&SYSTEM
  ibrav = 0
  nat = 16
  ntyp = 1
  ecutwfc = 30.0
/
&ELECTRONS
  conv_thr = 1.0d-8
/

ATOMIC_SPECIES
  Si  28.0855  Si.pbe-n-kjpaw_psl.1.0.0.UPF

CELL_PARAMETERS angstrom
  0.0000000000  5.4300000000  5.4300000000
  5.4300000000  0.0000000000  5.4300000000
  5.4300000000  5.4300000000  0.0000000000

ATOMIC_POSITIONS crystal
  Si  0.0000000000  0.0000000000  0.0000000000
  Si  0.0000000000  0.0000000000  0.5000000000
  Si  0.0000000000  0.5000000000  0.0000000000
  Si  0.0000000000  0.5000000000  0.5000000000
  Si  0.5000000000  0.0000000000  0.0000000000
  Si  0.5000000000  0.0000000000  0.5000000000
  Si  0.5000000000  0.5000000000  0.0000000000
  Si  0.5000000000  0.5000000000  0.5000000000
  Si  0.1250000000  0.1250000000  0.1250000000
  Si  0.1250000000  0.1250000000  0.6250000000
  Si  0.1250000000  0.6250000000  0.1250000000
  Si  0.1250000000  0.6250000000  0.6250000000
  Si  0.6250000000  0.1250000000  0.1250000000
  Si  0.6250000000  0.1250000000  0.6250000000
  Si  0.6250000000  0.6250000000  0.1250000000
  Si  0.6250000000  0.6250000000  0.6250000000
