Si64
1.0
  10.8599999999999994    0.0000000000000000    0.0000000000000007
  -0.0000000000000007   10.8599999999999994    0.0000000000000007
   0.0000000000000000    0.0000000000000000   10.8599999999999994
Si
64
direct
   0.0000000000000000    0.0000000000000000    0.2500000000000000 Si
   0.0000000000000000    0.0000000000000000    0.7500000000000000 Si
   0.0000000000000000    0.5000000000000000    0.2500000000000000 Si
   0.0000000000000000    0.5000000000000000    0.7499999999999999 Si
   0.5000000000000000    0.0000000000000000    0.2500000000000000 Si
   0.5000000000000000    0.0000000000000000    0.7499999999999999 Si
   0.5000000000000000    0.5000000000000000    0.2500000000000000 Si
   0.5000000000000000    0.5000000000000000    0.7499999999999999 Si
   0.1250000000000000    0.3750000000000000    0.1250000000000000 Si
   0.1250000000000000    0.3750000000000000    0.6249999999999999 Si
   0.1250000000000000    0.8750000000000000    0.1250000000000000 Si
   0.1250000000000000    0.8750000000000000    0.6249999999999999 Si
   0.6250000000000000    0.3750000000000000    0.1250000000000000 Si
   0.6250000000000000    0.3750000000000000    0.6249999999999999 Si
   0.6250000000000000    0.8750000000000000    0.1250000000000000 Si
   0.6250000000000000    0.8750000000000000    0.6250000000000000 Si
   0.0000000000000000    0.2500000000000000    0.0000000000000000 Si
   0.0000000000000000    0.2500000000000000    0.4999999999999999 Si
   0.0000000000000000    0.7500000000000000    0.0000000000000000 Si
   0.0000000000000000    0.7500000000000000    0.4999999999999999 Si
   0.5000000000000000    0.2500000000000000    0.0000000000000000 Si
   0.5000000000000000    0.2500000000000000    0.4999999999999999 Si
   0.5000000000000000    0.7500000000000000    0.0000000000000000 Si
   0.5000000000000000    0.7500000000000000    0.5000000000000000 Si
   0.1250000000000000    0.1250000000000000    0.3749999999999999 Si
   0.1250000000000000    0.1250000000000000    0.8750000000000000 Si
   0.1250000000000000    0.6250000000000000    0.3749999999999999 Si
   0.1250000000000000    0.6250000000000000    0.8749999999999999 Si
   0.6250000000000000    0.1250000000000000    0.3749999999999999 Si
   0.6250000000000000    0.1250000000000000    0.8749999999999999 Si
   0.6250000000000000    0.6250000000000000    0.3750000000000000 Si
   0.6250000000000000    0.6250000000000000    0.8750000000000000 Si
   0.2500000000000000    0.0000000000000000    0.0000000000000000 Si
   0.2500000000000000    0.0000000000000000    0.4999999999999999 Si
   0.2500000000000000    0.5000000000000000    0.0000000000000000 Si
   0.2500000000000000    0.5000000000000000    0.4999999999999999 Si
   0.7500000000000000    0.0000000000000000    0.0000000000000000 Si
   0.7500000000000000    0.0000000000000000    0.4999999999999999 Si
   0.7500000000000000    0.5000000000000000    0.0000000000000000 Si
   0.7500000000000000    0.5000000000000000    0.5000000000000000 Si
   0.3750000000000000    0.3750000000000000    0.3750000000000000 Si
   0.3750000000000000    0.3750000000000000    0.8750000000000001 Si
   0.3750000000000001    0.8750000000000000    0.3750000000000000 Si
   0.3750000000000001    0.8750000000000000    0.8750000000000000 Si
   0.8750000000000000    0.3750000000000000    0.3750000000000000 Si
   0.8750000000000000    0.3750000000000000    0.8750000000000000 Si
   0.8750000000000000    0.8750000000000000    0.3750000000000001 Si
   0.8750000000000000    0.8750000000000000    0.8750000000000000 Si
   0.2500000000000000    0.2500000000000000    0.2500000000000000 Si
   0.2500000000000000    0.2500000000000000    0.7499999999999999 Si
   0.2500000000000000    0.7500000000000000    0.2500000000000000 Si
   0.2500000000000000    0.7500000000000000    0.7499999999999999 Si
   0.7500000000000000    0.2500000000000000    0.2500000000000000 Si
   0.7500000000000000    0.2500000000000000    0.7499999999999999 Si
   0.7500000000000000    0.7500000000000000    0.2500000000000000 Si
   0.7500000000000000    0.7500000000000000    0.7500000000000000 Si
   0.3750000000000000    0.1250000000000000    0.1250000000000000 Si
   0.3750000000000000    0.1250000000000000    0.6249999999999999 Si
   0.3750000000000001    0.6250000000000000    0.1250000000000000 Si
   0.3750000000000001    0.6250000000000000    0.6249999999999999 Si
   0.8750000000000000    0.1250000000000000    0.1250000000000000 Si
   0.8750000000000000    0.1250000000000000    0.6249999999999999 Si
   0.8750000000000000    0.6250000000000000    0.1250000000000000 Si
   0.8750000000000000    0.6250000000000000    0.6250000000000000 Si
