Si primitive bulk cell
1.0
 0.000000   2.715000   2.715000
 2.715000   0.000000   2.715000
 2.715000   2.715000   0.000000
Si
2
Direct
 0.00 0.00 0.00
 0.25 0.25 0.25
