Si216
1.0
  16.2899999999999991    0.0000000000000000    0.0000000000000000
   0.0000000000000000   16.2899999999999991    0.0000000000000000
   0.0000000000000000    0.0000000000000000   16.2899999999999991
Si
216
direct
   0.0000000000000000    0.0000000000000000    0.0000000000000000 Si
   0.0000000000000000    0.0000000000000000    0.3333333333333333 Si
   0.0000000000000000    0.0000000000000000    0.6666666666666666 Si
   0.0000000000000000    0.3333333333333333    0.0000000000000000 Si
   0.0000000000000000    0.3333333333333333    0.3333333333333333 Si
   0.0000000000000000    0.3333333333333333    0.6666666666666666 Si
   0.0000000000000000    0.6666666666666666    0.0000000000000000 Si
   0.0000000000000000    0.6666666666666666    0.3333333333333333 Si
   0.0000000000000000    0.6666666666666666    0.6666666666666666 Si
   0.3333333333333333    0.0000000000000000    0.0000000000000000 Si
   0.3333333333333333    0.0000000000000000    0.3333333333333333 Si
   0.3333333333333333    0.0000000000000000    0.6666666666666666 Si
   0.3333333333333333    0.3333333333333333    0.0000000000000000 Si
   0.3333333333333333    0.3333333333333333    0.3333333333333333 Si
   0.3333333333333333    0.3333333333333333    0.6666666666666666 Si
   0.3333333333333333    0.6666666666666666    0.0000000000000000 Si
   0.3333333333333333    0.6666666666666666    0.3333333333333333 Si
   0.3333333333333333    0.6666666666666666    0.6666666666666666 Si
   0.6666666666666666    0.0000000000000000    0.0000000000000000 Si
   0.6666666666666666    0.0000000000000000    0.3333333333333333 Si
   0.6666666666666666    0.0000000000000000    0.6666666666666666 Si
   0.6666666666666666    0.3333333333333333    0.0000000000000000 Si
   0.6666666666666666    0.3333333333333333    0.3333333333333333 Si
   0.6666666666666666    0.3333333333333333    0.6666666666666666 Si
   0.6666666666666666    0.6666666666666666    0.0000000000000000 Si
   0.6666666666666666    0.6666666666666666    0.3333333333333333 Si
   0.6666666666666666    0.6666666666666666    0.6666666666666666 Si
   0.0000000000000000    0.1666666666666667    0.1666666666666667 Si
   0.0000000000000000    0.1666666666666667    0.5000000000000000 Si
   0.0000000000000000    0.1666666666666667    0.8333333333333334 Si
   0.0000000000000000    0.5000000000000000    0.1666666666666667 Si
   0.0000000000000000    0.5000000000000000    0.5000000000000000 Si
   0.0000000000000000    0.5000000000000000    0.8333333333333334 Si
   0.0000000000000000    0.8333333333333334    0.1666666666666667 Si
   0.0000000000000000    0.8333333333333334    0.5000000000000000 Si
   0.0000000000000000    0.8333333333333334    0.8333333333333334 Si
   0.3333333333333333    0.1666666666666667    0.1666666666666667 Si
   0.3333333333333333    0.1666666666666667    0.5000000000000000 Si
   0.3333333333333333    0.1666666666666667    0.8333333333333334 Si
   0.3333333333333333    0.5000000000000000    0.1666666666666667 Si
   0.3333333333333333    0.5000000000000000    0.5000000000000000 Si
   0.3333333333333333    0.5000000000000000    0.8333333333333334 Si
   0.3333333333333333    0.8333333333333334    0.1666666666666667 Si
   0.3333333333333333    0.8333333333333334    0.5000000000000000 Si
   0.3333333333333333    0.8333333333333334    0.8333333333333334 Si
   0.6666666666666666    0.1666666666666667    0.1666666666666667 Si
   0.6666666666666666    0.1666666666666667    0.5000000000000000 Si
   0.6666666666666666    0.1666666666666667    0.8333333333333334 Si
   0.6666666666666666    0.5000000000000000    0.1666666666666667 Si
   0.6666666666666666    0.5000000000000000    0.5000000000000000 Si
   0.6666666666666666    0.5000000000000000    0.8333333333333334 Si
   0.6666666666666666    0.8333333333333334    0.1666666666666667 Si
   0.6666666666666666    0.8333333333333334    0.5000000000000000 Si
   0.6666666666666666    0.8333333333333334    0.8333333333333334 Si
   0.1666666666666667    0.0000000000000000    0.1666666666666667 Si
   0.1666666666666667    0.0000000000000000    0.5000000000000000 Si
   0.1666666666666667    0.0000000000000000    0.8333333333333334 Si
   0.1666666666666667    0.3333333333333333    0.1666666666666667 Si
   0.1666666666666667    0.3333333333333333    0.5000000000000000 Si
   0.1666666666666667    0.3333333333333333    0.8333333333333334 Si
   0.1666666666666667    0.6666666666666666    0.1666666666666667 Si
   0.1666666666666667    0.6666666666666666    0.5000000000000000 Si
   0.1666666666666667    0.6666666666666666    0.8333333333333334 Si
   0.5000000000000000    0.0000000000000000    0.1666666666666667 Si
   0.5000000000000000    0.0000000000000000    0.5000000000000000 Si
   0.5000000000000000    0.0000000000000000    0.8333333333333334 Si
   0.5000000000000000    0.3333333333333333    0.1666666666666667 Si
   0.5000000000000000    0.3333333333333333    0.5000000000000000 Si
   0.5000000000000000    0.3333333333333333    0.8333333333333334 Si
   0.5000000000000000    0.6666666666666666    0.1666666666666667 Si
   0.5000000000000000    0.6666666666666666    0.5000000000000000 Si
   0.5000000000000000    0.6666666666666666    0.8333333333333334 Si
   0.8333333333333334    0.0000000000000000    0.1666666666666667 Si
   0.8333333333333334    0.0000000000000000    0.5000000000000000 Si
   0.8333333333333334    0.0000000000000000    0.8333333333333334 Si
   0.8333333333333334    0.3333333333333333    0.1666666666666667 Si
   0.8333333333333334    0.3333333333333333    0.5000000000000000 Si
   0.8333333333333334    0.3333333333333333    0.8333333333333334 Si
   0.8333333333333334    0.6666666666666666    0.1666666666666667 Si
   0.8333333333333334    0.6666666666666666    0.5000000000000000 Si
   0.8333333333333334    0.6666666666666666    0.8333333333333334 Si
   0.1666666666666667    0.1666666666666667    0.0000000000000000 Si
   0.1666666666666667    0.1666666666666667    0.3333333333333333 Si
   0.1666666666666667    0.1666666666666667    0.6666666666666666 Si
   0.1666666666666667    0.5000000000000000    0.0000000000000000 Si
   0.1666666666666667    0.5000000000000000    0.3333333333333333 Si
   0.1666666666666667    0.5000000000000000    0.6666666666666666 Si
   0.1666666666666667    0.8333333333333334    0.0000000000000000 Si
   0.1666666666666667    0.8333333333333334    0.3333333333333333 Si
   0.1666666666666667    0.8333333333333334    0.6666666666666666 Si
   0.5000000000000000    0.1666666666666667    0.0000000000000000 Si
   0.5000000000000000    0.1666666666666667    0.3333333333333333 Si
   0.5000000000000000    0.1666666666666667    0.6666666666666666 Si
   0.5000000000000000    0.5000000000000000    0.0000000000000000 Si
   0.5000000000000000    0.5000000000000000    0.3333333333333333 Si
   0.5000000000000000    0.5000000000000000    0.6666666666666666 Si
   0.5000000000000000    0.8333333333333334    0.0000000000000000 Si
   0.5000000000000000    0.8333333333333334    0.3333333333333333 Si
   0.5000000000000000    0.8333333333333334    0.6666666666666666 Si
   0.8333333333333334    0.1666666666666667    0.0000000000000000 Si
   0.8333333333333334    0.1666666666666667    0.3333333333333333 Si
   0.8333333333333334    0.1666666666666667    0.6666666666666666 Si
   0.8333333333333334    0.5000000000000000    0.0000000000000000 Si
   0.8333333333333334    0.5000000000000000    0.3333333333333333 Si
   0.8333333333333334    0.5000000000000000    0.6666666666666666 Si
   0.8333333333333334    0.8333333333333334    0.0000000000000000 Si
   0.8333333333333334    0.8333333333333334    0.3333333333333333 Si
   0.8333333333333334    0.8333333333333334    0.6666666666666666 Si
   0.0833333333333333    0.0833333333333333    0.0833333333333333 Si
   0.0833333333333333    0.0833333333333333    0.4166666666666667 Si
   0.0833333333333333    0.0833333333333333    0.7500000000000000 Si
   0.0833333333333333    0.4166666666666667    0.0833333333333333 Si
   0.0833333333333333    0.4166666666666667    0.4166666666666667 Si
   0.0833333333333333    0.4166666666666667    0.7500000000000000 Si
   0.0833333333333333    0.7500000000000000    0.0833333333333333 Si
   0.0833333333333333    0.7500000000000000    0.4166666666666667 Si
   0.0833333333333333    0.7500000000000000    0.7500000000000000 Si
   0.4166666666666667    0.0833333333333333    0.0833333333333333 Si
   0.4166666666666667    0.0833333333333333    0.4166666666666667 Si
   0.4166666666666667    0.0833333333333333    0.7500000000000000 Si
   0.4166666666666667    0.4166666666666667    0.0833333333333333 Si
   0.4166666666666667    0.4166666666666667    0.4166666666666667 Si
   0.4166666666666667    0.4166666666666667    0.7500000000000000 Si
   0.4166666666666667    0.7500000000000000    0.0833333333333333 Si
   0.4166666666666667    0.7500000000000000    0.4166666666666667 Si
   0.4166666666666667    0.7500000000000000    0.7500000000000000 Si
   0.7500000000000000    0.0833333333333333    0.0833333333333333 Si
   0.7500000000000000    0.0833333333333333    0.4166666666666667 Si
   0.7500000000000000    0.0833333333333333    0.7500000000000000 Si
   0.7500000000000000    0.4166666666666667    0.0833333333333333 Si
   0.7500000000000000    0.4166666666666667    0.4166666666666667 Si
   0.7500000000000000    0.4166666666666667    0.7500000000000000 Si
   0.7500000000000000    0.7500000000000000    0.0833333333333333 Si
   0.7500000000000000    0.7500000000000000    0.4166666666666667 Si
   0.7500000000000000    0.7500000000000000    0.7500000000000000 Si
   0.0833333333333333    0.2500000000000000    0.2500000000000000 Si
   0.0833333333333333    0.2500000000000000    0.5833333333333334 Si
   0.0833333333333333    0.2500000000000000    0.9166666666666666 Si
   0.0833333333333333    0.5833333333333334    0.2500000000000000 Si
   0.0833333333333333    0.5833333333333334    0.5833333333333334 Si
   0.0833333333333333    0.5833333333333334    0.9166666666666666 Si
   0.0833333333333333    0.9166666666666666    0.2500000000000000 Si
   0.0833333333333333    0.9166666666666666    0.5833333333333334 Si
   0.0833333333333333    0.9166666666666666    0.9166666666666666 Si
   0.4166666666666667    0.2500000000000000    0.2500000000000000 Si
   0.4166666666666667    0.2500000000000000    0.5833333333333334 Si
   0.4166666666666667    0.2500000000000000    0.9166666666666666 Si
   0.4166666666666667    0.5833333333333334    0.2500000000000000 Si
   0.4166666666666667    0.5833333333333334    0.5833333333333334 Si
   0.4166666666666667    0.5833333333333334    0.9166666666666666 Si
   0.4166666666666667    0.9166666666666666    0.2500000000000000 Si
   0.4166666666666667    0.9166666666666666    0.5833333333333334 Si
   0.4166666666666667    0.9166666666666666    0.9166666666666666 Si
   0.7500000000000000    0.2500000000000000    0.2500000000000000 Si
   0.7500000000000000    0.2500000000000000    0.5833333333333334 Si
   0.7500000000000000    0.2500000000000000    0.9166666666666666 Si
   0.7500000000000000    0.5833333333333334    0.2500000000000000 Si
   0.7500000000000000    0.5833333333333334    0.5833333333333334 Si
   0.7500000000000000    0.5833333333333334    0.9166666666666666 Si
   0.7500000000000000    0.9166666666666666    0.2500000000000000 Si
   0.7500000000000000    0.9166666666666666    0.5833333333333334 Si
   0.7500000000000000    0.9166666666666666    0.9166666666666666 Si
   0.2500000000000000    0.0833333333333333    0.2500000000000000 Si
   0.2500000000000000    0.0833333333333333    0.5833333333333334 Si
   0.2500000000000000    0.0833333333333333    0.9166666666666666 Si
   0.2500000000000000    0.4166666666666667    0.2500000000000000 Si
   0.2500000000000000    0.4166666666666667    0.5833333333333334 Si
   0.2500000000000000    0.4166666666666667    0.9166666666666666 Si
   0.2500000000000000    0.7500000000000000    0.2500000000000000 Si
   0.2500000000000000    0.7500000000000000    0.5833333333333334 Si
   0.2500000000000000    0.7500000000000000    0.9166666666666666 Si
   0.5833333333333334    0.0833333333333333    0.2500000000000000 Si
   0.5833333333333334    0.0833333333333333    0.5833333333333334 Si
   0.5833333333333334    0.0833333333333333    0.9166666666666666 Si
   0.5833333333333334    0.4166666666666667    0.2500000000000000 Si
   0.5833333333333334    0.4166666666666667    0.5833333333333334 Si
   0.5833333333333334    0.4166666666666667    0.9166666666666666 Si
   0.5833333333333334    0.7500000000000000    0.2500000000000000 Si
   0.5833333333333334    0.7500000000000000    0.5833333333333334 Si
   0.5833333333333334    0.7500000000000000    0.9166666666666666 Si
   0.9166666666666666    0.0833333333333333    0.2500000000000000 Si
   0.9166666666666666    0.0833333333333333    0.5833333333333334 Si
   0.9166666666666666    0.0833333333333333    0.9166666666666666 Si
   0.9166666666666666    0.4166666666666667    0.2500000000000000 Si
   0.9166666666666666    0.4166666666666667    0.5833333333333334 Si
   0.9166666666666666    0.4166666666666667    0.9166666666666666 Si
   0.9166666666666666    0.7500000000000000    0.2500000000000000 Si
   0.9166666666666666    0.7500000000000000    0.5833333333333334 Si
   0.9166666666666666    0.7500000000000000    0.9166666666666666 Si
   0.2500000000000000    0.2500000000000000    0.0833333333333333 Si
   0.2500000000000000    0.2500000000000000    0.4166666666666667 Si
   0.2500000000000000    0.2500000000000000    0.7500000000000000 Si
   0.2500000000000000    0.5833333333333334    0.0833333333333333 Si
   0.2500000000000000    0.5833333333333334    0.4166666666666667 Si
   0.2500000000000000    0.5833333333333334    0.7500000000000000 Si
   0.2500000000000000    0.9166666666666666    0.0833333333333333 Si
   0.2500000000000000    0.9166666666666666    0.4166666666666667 Si
   0.2500000000000000    0.9166666666666666    0.7500000000000000 Si
   0.5833333333333334    0.2500000000000000    0.0833333333333333 Si
   0.5833333333333334    0.2500000000000000    0.4166666666666667 Si
   0.5833333333333334    0.2500000000000000    0.7500000000000000 Si
   0.5833333333333334    0.5833333333333334    0.0833333333333333 Si
   0.5833333333333334    0.5833333333333334    0.4166666666666667 Si
   0.5833333333333334    0.5833333333333334    0.7500000000000000 Si
   0.5833333333333334    0.9166666666666666    0.0833333333333333 Si
   0.5833333333333334    0.9166666666666666    0.4166666666666667 Si
   0.5833333333333334    0.9166666666666666    0.7500000000000000 Si
   0.9166666666666666    0.2500000000000000    0.0833333333333333 Si
   0.9166666666666666    0.2500000000000000    0.4166666666666667 Si
   0.9166666666666666    0.2500000000000000    0.7500000000000000 Si
   0.9166666666666666    0.5833333333333334    0.0833333333333333 Si
   0.9166666666666666    0.5833333333333334    0.4166666666666667 Si
   0.9166666666666666    0.5833333333333334    0.7500000000000000 Si
   0.9166666666666666    0.9166666666666666    0.0833333333333333 Si
   0.9166666666666666    0.9166666666666666    0.4166666666666667 Si
   0.9166666666666666    0.9166666666666666    0.7500000000000000 Si
