&CONTROL
  calculation = 'scf'
  prefix = 'sic3c'
  pseudo_dir = './pseudo/'
  outdir = './tmp/'
  etot_conv_thr = 1.0d-10
  forc_conv_thr = 1.0d-8
/
&SYSTEM
  ibrav = 0
  nat = 62
  ntyp = 2
  ecutwfc = 60.0
  ecutrho = 480.0
/
&ELECTRONS
  conv_thr = 1.0d-12
/


K_POINTS {automatic}
  8 8 8 0 0 0

ATOMIC_SPECIES
  Si  28.085  Si.pbe-n-kjpaw_psl.1.0.0.UPF
  C  12.011  C.pbe-n-kjpaw_psl.1.0.0.UPF

CELL_PARAMETERS angstrom
  8.7598243071  0.0000000000  0.0000000000
  -0.0000000000  8.7598243071  0.0000000000
  0.0000000000  0.0000000000  8.7598243071

ATOMIC_POSITIONS crystal
  Si  0.0000000000  0.0000000000  0.5000000000
  Si  0.0000000000  0.5000000000  0.0000000000
  Si  0.0000000000  0.5000000000  0.5000000000
  Si  0.5000000000  0.0000000000  0.0000000000
  Si  0.5000000000  0.0000000000  0.5000000000
  Si  0.5000000000  0.5000000000  0.0000000000
  Si  0.5000000000  0.5000000000  0.5000000000
  Si  0.0000000000  0.2500000000  0.2500000000
  Si  0.0000000000  0.2500000000  0.7500000000
  Si  0.0000000000  0.7500000000  0.2500000000
  Si  0.0000000000  0.7500000000  0.7500000000
  Si  0.5000000000  0.2500000000  0.2500000000
  Si  0.5000000000  0.2500000000  0.7500000000
  Si  0.5000000000  0.7500000000  0.2500000000
  Si  0.5000000000  0.7500000000  0.7500000000
  Si  0.2500000000  0.0000000000  0.2500000000
  Si  0.2500000000  0.0000000000  0.7500000000
  Si  0.2500000000  0.5000000000  0.2500000000
  Si  0.2500000000  0.5000000000  0.7500000000
  Si  0.7500000000  0.0000000000  0.2500000000
  Si  0.7500000000  0.0000000000  0.7500000000
  Si  0.7500000000  0.5000000000  0.2500000000
  Si  0.7500000000  0.5000000000  0.7500000000
  Si  0.2500000000  0.2500000000  0.0000000000
  Si  0.2500000000  0.2500000000  0.5000000000
  Si  0.2500000000  0.7500000000  0.0000000000
  Si  0.2500000000  0.7500000000  0.5000000000
  Si  0.7500000000  0.2500000000  0.0000000000
  Si  0.7500000000  0.2500000000  0.5000000000
  Si  0.7500000000  0.7500000000  0.0000000000
  Si  0.7500000000  0.7500000000  0.5000000000
  C  0.1250000000  0.1250000000  0.3750000000
  C  0.1250000000  0.6250000000  0.3750000000
  C  0.1250000000  0.6250000000  0.8750000000
  C  0.6250000000  0.1250000000  0.3750000000
  C  0.6250000000  0.1250000000  0.8750000000
  C  0.6250000000  0.6250000000  0.3750000000
  C  0.6250000000  0.6250000000  0.8750000000
  C  0.1250000000  0.3750000000  0.1250000000
  C  0.1250000000  0.3750000000  0.6250000000
  C  0.1250000000  0.8750000000  0.1250000000
  C  0.1250000000  0.8750000000  0.6250000000
  C  0.6250000000  0.3750000000  0.1250000000
  C  0.6250000000  0.3750000000  0.6250000000
  C  0.6250000000  0.8750000000  0.1250000000
  C  0.6250000000  0.8750000000  0.6250000000
  C  0.3750000000  0.1250000000  0.1250000000
  C  0.3750000000  0.1250000000  0.6250000000
  C  0.3750000000  0.6250000000  0.1250000000
  C  0.3750000000  0.6250000000  0.6250000000
  C  0.8750000000  0.1250000000  0.1250000000
  C  0.8750000000  0.1250000000  0.6250000000
  C  0.8750000000  0.6250000000  0.1250000000
  C  0.8750000000  0.6250000000  0.6250000000
  C  0.3750000000  0.3750000000  0.3750000000
  C  0.3750000000  0.3750000000  0.8750000000
  C  0.3750000000  0.8750000000  0.3750000000
  C  0.3750000000  0.8750000000  0.8750000000
  C  0.8750000000  0.3750000000  0.3750000000
  C  0.8750000000  0.3750000000  0.8750000000
  C  0.8750000000  0.8750000000  0.3750000000
  C  0.8750000000  0.8750000000  0.8750000000
