&CONTROL
  calculation = 'scf'
  prefix = 'sic3c'
  pseudo_dir = './pseudo/'
  outdir = './tmp/'
  etot_conv_thr = 1.0d-10
  forc_conv_thr = 1.0d-8
/
&SYSTEM
  ibrav = 0
  nat = 62
  ntyp = 2
  ecutwfc = 60.0
  ecutrho = 480.0
/
&ELECTRONS
  conv_thr = 1.0d-12
/


K_POINTS {automatic}
  8 8 8 0 0 0

ATOMIC_SPECIES
  Si  28.085  Si.pbe-n-kjpaw_psl.1.0.0.UPF
  C  12.011  C.pbe-n-kjpaw_psl.1.0.0.UPF

CELL_PARAMETERS angstrom
  8.7598243494  0.0000000000  0.0000000000
  0.0000000000  8.7598243494  0.0000000000
  0.0000000000  0.0000000000  8.7598243494

ATOMIC_POSITIONS crystal
  Si  -0.0076043730  -0.0076043730  0.5081226369
  Si  -0.0015094090  0.5013780727  -0.0008287975
  Si  0.0001497985  0.5013833850  0.5003387059
  Si  0.5013780727  -0.0015094090  -0.0008287975
  Si  0.5013833850  0.0001497985  0.5003387059
  Si  0.5002768536  0.5002768536  0.0008663885
  Si  0.5004374831  0.5004374831  0.5015740422
  Si  -0.0149751816  0.2593947001  0.2358521393
  Si  -0.0009669679  0.2492747351  0.7529374565
  Si  0.0026664350  0.7514811035  0.2474572830
  Si  -0.0006952436  0.7496243308  0.7517862573
  Si  0.5020487249  0.2496302763  0.2499279520
  Si  0.5004156724  0.2516055723  0.7514193974
  Si  0.5004135530  0.7492702709  0.2481990194
  Si  0.5005539774  0.7498178169  0.7508015066
  Si  0.2593947001  -0.0149751816  0.2358521393
  Si  0.2492747351  -0.0009669679  0.7529374565
  Si  0.2496302763  0.5020487249  0.2499279520
  Si  0.2516055723  0.5004156724  0.7514193974
  Si  0.7514811035  0.0026664350  0.2474572830
  Si  0.7496243308  -0.0006952436  0.7517862573
  Si  0.7492702709  0.5004135530  0.2481990194
  Si  0.7498178169  0.5005539774  0.7508015066
  Si  0.2487057107  0.2487057107  0.0000388025
  Si  0.2567256952  0.2567256952  0.5086450462
  Si  0.2494147784  0.7519549846  0.0017893494
  Si  0.2500014774  0.7485030474  0.4996755396
  Si  0.7519549846  0.2494147784  0.0017893494
  Si  0.7485030474  0.2500014774  0.4996755396
  Si  0.7509899608  0.7509899608  0.0012562135
  Si  0.7502070773  0.7502070773  0.5016739588
  C  0.1376682685  0.1376682685  0.8622789013
  C  0.1247681371  0.6238899914  0.3767279127
  C  0.1258894669  0.6248196196  0.8748740839
  C  0.6238899914  0.1247681371  0.3767279127
  C  0.6248196196  0.1258894669  0.8748740839
  C  0.6250776193  0.6250776193  0.3752634412
  C  0.6242699197  0.6242699197  0.8754515297
  C  0.1258739699  0.3756537563  0.1255308002
  C  0.1235177993  0.3753434726  0.6245689527
  C  0.1333343957  0.8642231887  0.1331667360
  C  0.1264708130  0.8746944045  0.6249674604
  C  0.6238218565  0.3763243130  0.1244597320
  C  0.6248657163  0.3753168875  0.6253734898
  C  0.6250592154  0.8749903053  0.1256530804
  C  0.6242636064  0.8749395386  0.6246767820
  C  0.3756537563  0.1258739699  0.1255308002
  C  0.3753434726  0.1235177993  0.6245689527
  C  0.3763243130  0.6238218565  0.1244597320
  C  0.3753168875  0.6248657163  0.6253734898
  C  0.8642231887  0.1333343957  0.1331667360
  C  0.8746944045  0.1264708130  0.6249674604
  C  0.8749903053  0.6250592154  0.1256530804
  C  0.8749395386  0.6242636064  0.6246767820
  C  0.3740793031  0.3740793031  0.3738472270
  C  0.3759103032  0.3759103032  0.8757802540
  C  0.3765263247  0.8752393150  0.3781037614
  C  0.3756653177  0.8743609846  0.8748085250
  C  0.8752393150  0.3765263247  0.3781037614
  C  0.8743609846  0.3756653177  0.8748085250
  C  0.8756732240  0.8756732240  0.3735758130
  C  0.8618946478  0.8618946478  0.8620914948
