&CONTROL
  calculation = 'scf'
  prefix = 'sic3c'
  pseudo_dir = './pseudo/'
  outdir = './tmp/'
  etot_conv_thr = 1.0d-10
  forc_conv_thr = 1.0d-8
/
&SYSTEM
  ibrav = 0
  nat = 2
  ntyp = 2
  ecutwfc = 60.0
  ecutrho = 480.0
/
&ELECTRONS
  conv_thr = 1.0d-12
/
ATOMIC_SPECIES
  Si  28.085  Si.pbe-n-kjpaw_psl.1.0.0.UPF
  C   12.011  C.pbe-n-kjpaw_psl.1.0.0.UPF

CELL_PARAMETERS {bohr}
  -4.138417230   0.000000000   4.138417230
   0.000000000   4.138417230   4.138417230
  -4.138417230   4.138417230   0.000000000

ATOMIC_POSITIONS {crystal}
  Si 0.00 0.00 0.00
  C  0.25 0.25 0.25

K_POINTS {automatic}
  8 8 8 0 0 0
